param set_len = 20;
param target_sum = 30351927;
param values := [1] 2463973 [2] 6616496 [3] 7066714 [4] 3473433 [5] 2352296 [6] 1727325 [7] 3320360 [8] 1760730 [9] 8058406 [10] 4199927 [11] 54694 [12] 1206751 [13] 2996113 [14] 170132 [15] 3213780 [16] 4531713 [17] 4735417 [18] 1537517 [19] 7434265 [20] 6565544 ;
